/* Objective function */
max:0.14 x1 + 0.20 x2 + 0.20 x3 + 0.10 x4;

/* Constrints*/
x1 + x2 + x3 + x4 <=250;
0.45 x1 - 0.55 x2 >= 0;
0.75 x1 - 0.25 x2 - 0.25 x3 - 0.25 x4 >= 0;
-0.25 x1 + 0.75 x2 - 0.25 x3 - 0.25 x4 <= 0;
-0.01 x1 + 0.05 x2 + 0.05 x3 - 0.05 x4 <= 0;


/* Variable bounds */
x1 >= 0;
x2 >= 0;
x3 >= 0;
x4 >= 0;